language Essence 1.3

letting class be function(1 --> 1, 2 --> 2, 3 --> 1, 4 --> 3, 5 --> 3, 6 --> 5, 7 --> 4)
letting deck_length be 11
letting deck_width be 38
letting length be function(1 --> 10, 2 --> 7, 3 --> 3, 4 --> 10, 5 --> 8, 6 --> 6, 7 --> 8)
letting n_classes be 5
letting n_containers be 7
letting separation be function({1, 2} --> 34, {1, 3} --> 33, {2, 3} --> 12)
letting width be function(1 --> 6, 2 --> 3, 3 --> 1, 4 --> 2, 5 --> 27, 6 --> 1, 7 --> 6)
